p edge 30 116
1 2
1 3
1 4
1 16
2 28
2 18
2 3
2 16
3 1
3 28
3 16
3 4
4 5
4 29
4 20
4 22
5 27
5 6
5 26
5 21
6 7
6 4
6 22
6 15
7 16
7 20
7 4
7 8
8 9
8 6
8 7
9 16
9 25
9 4
9 10
10 4
10 11
10 29
10 8
11 8
11 23
11 12
11 30
12 19
12 20
12 13
12 21
13 19
13 7
13 2
13 14
14 15
14 4
14 30
14 8
15 13
15 18
15 12
15 16
16 9
16 6
16 17
16 23
17 10
17 7
17 18
17 1
18 19
18 7
18 23
18 29
19 22
19 26
19 20
19 5
20 1
20 16
20 21
20 8
21 28
21 17
21 6
21 22
22 9
22 19
22 5
22 23
23 10
23 25
23 24
23 2
24 11
24 25
24 8
24 7
25 26
25 30
25 13
25 29
26 15
26 27
26 21
27 7
27 8
27 17
27 28
28 29
28 13
28 7
29 18
29 30
29 14
29 17
30 4
30 1
30 13
